0 21 21
1 9 25
2 29 29
3 24 28
4 27 29
5 28 29
6 29 31
7 23 32
8 24 31
9 22 30
10 24 28
11 20 24
12 25 26
13 20 23
14 20 21
15 12 20
16 18 19
17 15 16
18 12 16
19 13 14
20 13 13
21 9 11
22 9 12
23 9 11
24 6 11
25 10 13
26 9 12
27 8 9
28 4 8
29 3 7
30 2 7
31 2 6
32 3 3
33 2 2
34 3 3

